db/data/2315429302707340142546321652742926094.z3.out
sat
-------------------
16.803582168
